NAME: random-27-6213
TYPE: TSP
COMMENT: size=27 seed=6213
DIMENSION: 56
EDGE_WEIGHT_TYPE: EUC_2D
NODE_COORD_SECTION
+0 891 438
-0 891 438
+1 520 16
-1 948 615
+2 259 888
-2 566 276
+3 982 488
-3 427 862
+4 308 868
-4 766 851
+5 868 895
-5 644 781
+6 1 98
-6 650 100
+7 960 23
-7 876 393
+8 446 653
-8 799 596
+9 817 484
-9 748 830
+10 473 848
-10 326 608
+11 896 888
-11 736 471
+12 304 24
-12 199 293
+13 185 643
-13 180 372
+14 178 429
-14 634 67
+15 646 160
-15 8 758
+16 503 46
-16 610 643
+17 28 403
-17 304 211
+18 768 750
-18 968 787
+19 57 951
-19 568 602
+20 974 656
-20 571 494
+21 203 118
-21 987 670
+22 840 34
-22 188 958
+23 105 230
-23 392 926
+24 188 265
-24 863 412
+25 27 232
-25 275 135
+26 296 757
-26 406 926
+27 582 793
-27 772 300
PRECEDENCE_SECTION
+0 -0
+1 -1
+2 -2
+3 -3
+4 -4
+5 -5
+6 -6
+7 -7
+8 -8
+9 -9
+10 -10
+11 -11
+12 -12
+13 -13
+14 -14
+15 -15
+16 -16
+17 -17
+18 -18
+19 -19
+20 -20
+21 -21
+22 -22
+23 -23
+24 -24
+25 -25
+26 -26
+27 -27
EOF
